p cnf 33 92
a 19 31 0
e 1 2 3 4 5 6 7 8 9 10 11 12 13 14 15 16 17 18 20 21 22 23 24 25 26 27 28 29 30 32 33 0
-3 -1 0
-3 2 0
1 -2 3 0
1 4 0
-1 4 0
-5 -3 0
-5 4 0
3 -4 5 0
-7 4 0
-7 -6 0
-4 6 7 0
-9 8 0
-9 -6 0
-8 6 9 0
-10 6 0
-10 6 0
-6 10 0
-9 -10 -11 0
9 10 -11 0
-9 10 11 0
9 -10 11 0
7 -11 -12 0
-7 11 -12 0
7 11 12 0
-7 -11 12 0
13 5 0
13 -12 0
-5 12 -13 0
15 -8 0
15 14 0
8 -14 -15 0
6 16 -17 0
-6 -16 -17 0
6 -16 17 0
-6 16 17 0
17 18 -19 0
-17 -18 -19 0
17 -18 19 0
-17 18 19 0
-20 -19 0
-20 -4 0
19 4 20 0
19 18 -21 0
-19 -18 -21 0
19 -18 21 0
-19 18 21 0
-22 -20 0
-22 -21 0
20 21 22 0
23 -15 0
23 22 0
15 -22 -23 0
-24 -13 0
-24 23 0
13 -23 24 0
-19 17 -25 0
19 -17 -25 0
-19 -17 25 0
19 17 25 0
-27 -14 0
-27 4 0
14 -4 27 0
26 -27 -28 0
-26 27 -28 0
26 27 28 0
-26 -27 28 0
-29 25 0
-29 -28 0
-25 28 29 0
30 6 0
30 -4 0
-6 4 -30 0
31 30 0
31 -18 0
-30 18 -31 0
-29 -31 -32 0
29 31 -32 0
-29 31 32 0
29 -31 32 0
-24 -32 -33 0
24 32 -33 0
-24 32 33 0
24 -32 33 0
24 14 -10 -1 32 0
-7 18 -28 -4 -5 0
7 30 -14 -32 8 13 11 0
29 -25 -22 28 0
22 -29 -25 16 8 2 0
-12 -19 -17 -23 24 14 0
-33 23 -26 -11 -7 0
30 15 -2 24 -11 -14 0
33 0
